(set-info :smt-lib-version 2.6)
(set-logic QF_NIA)
(set-info :source |
Generated by: Cristina Borralleras, Daniel Larraz, Albert Oliveras, Enric Rodriguez-Carbonell, Albert Rubio
Generated on: 2017-04-27
Generator: VeryMax
Application: Termination proving
Target solver: barcelogic
|)
(set-info :license "https://creativecommons.org/licenses/by/4.0/")
(set-info :category "industrial")
(set-info :status sat)
(declare-fun Nl5WItemsNum^01 () Int)
(declare-fun Nl5__const_5^01 () Int)
(declare-fun Nl6WItemsNum^01 () Int)
(declare-fun Nl6__const_5^01 () Int)
(declare-fun Nl5WItemsNum^02 () Int)
(declare-fun Nl5__const_5^02 () Int)
(declare-fun Nl6WItemsNum^02 () Int)
(declare-fun Nl6__const_5^02 () Int)
(declare-fun Nl5WItemsNum^03 () Int)
(declare-fun Nl5__const_5^03 () Int)
(declare-fun Nl6WItemsNum^03 () Int)
(declare-fun Nl6__const_5^03 () Int)
(declare-fun lam0n0 () Int)
(declare-fun lam0n1 () Int)
(declare-fun lam0n2 () Int)
(declare-fun lam0n3 () Int)
(declare-fun Nl5CT1 () Int)
(declare-fun Nl5CT2 () Int)
(declare-fun Nl5CT3 () Int)
(declare-fun lam1n0 () Int)
(declare-fun lam1n1 () Int)
(declare-fun lam1n2 () Int)
(declare-fun lam1n3 () Int)
(declare-fun Nl6CT1 () Int)
(declare-fun lam2n0 () Int)
(declare-fun lam2n1 () Int)
(declare-fun lam2n2 () Int)
(declare-fun lam2n3 () Int)
(declare-fun Nl6CT2 () Int)
(declare-fun lam3n0 () Int)
(declare-fun lam3n1 () Int)
(declare-fun lam3n2 () Int)
(declare-fun lam3n3 () Int)
(declare-fun Nl6CT3 () Int)
(declare-fun lam4n0 () Int)
(declare-fun lam4n2 () Int)
(declare-fun lam4n3 () Int)
(declare-fun lam4n4 () Int)
(declare-fun lam4n1 () Int)
(declare-fun lam5n0 () Int)
(declare-fun lam5n2 () Int)
(declare-fun lam5n3 () Int)
(declare-fun lam5n4 () Int)
(declare-fun lam5n1 () Int)
(declare-fun lam6n0 () Int)
(declare-fun lam6n2 () Int)
(declare-fun lam6n3 () Int)
(declare-fun lam6n4 () Int)
(declare-fun lam6n1 () Int)
(declare-fun lam7n0 () Int)
(declare-fun lam7n2 () Int)
(declare-fun lam7n3 () Int)
(declare-fun lam7n4 () Int)
(declare-fun lam7n1 () Int)
(declare-fun lam8n0 () Int)
(declare-fun lam8n1 () Int)
(declare-fun lam8n2 () Int)
(declare-fun lam8n3 () Int)
(declare-fun lam8n4 () Int)
(declare-fun lam9n0 () Int)
(declare-fun lam9n1 () Int)
(declare-fun lam9n2 () Int)
(declare-fun lam9n3 () Int)
(declare-fun lam9n4 () Int)
(declare-fun lam10n0 () Int)
(declare-fun lam10n1 () Int)
(declare-fun lam10n2 () Int)
(declare-fun lam10n3 () Int)
(declare-fun lam10n4 () Int)
(declare-fun lam11n0 () Int)
(declare-fun lam11n1 () Int)
(declare-fun lam11n2 () Int)
(declare-fun lam11n3 () Int)
(declare-fun lam11n4 () Int)
(declare-fun lam12n0 () Int)
(declare-fun lam12n1 () Int)
(declare-fun lam12n2 () Int)
(declare-fun lam12n3 () Int)
(declare-fun lam12n4 () Int)
(declare-fun lam13n0 () Int)
(declare-fun lam13n1 () Int)
(declare-fun lam13n2 () Int)
(declare-fun lam13n3 () Int)
(declare-fun lam13n4 () Int)
(declare-fun lam14n0 () Int)
(declare-fun lam14n1 () Int)
(declare-fun lam14n2 () Int)
(declare-fun lam14n3 () Int)
(declare-fun lam14n4 () Int)
(declare-fun lam15n0 () Int)
(declare-fun lam15n1 () Int)
(declare-fun lam15n2 () Int)
(declare-fun lam15n3 () Int)
(declare-fun lam15n4 () Int)
(declare-fun lam16n0 () Int)
(declare-fun lam16n1 () Int)
(declare-fun lam16n2 () Int)
(declare-fun lam16n3 () Int)
(declare-fun lam17n0 () Int)
(declare-fun lam17n1 () Int)
(declare-fun lam17n2 () Int)
(declare-fun lam17n3 () Int)
(declare-fun lam18n0 () Int)
(declare-fun lam18n1 () Int)
(declare-fun lam18n2 () Int)
(declare-fun lam18n3 () Int)
(declare-fun lam19n0 () Int)
(declare-fun lam19n1 () Int)
(declare-fun lam19n2 () Int)
(declare-fun lam19n3 () Int)
(declare-fun lam20n0 () Int)
(declare-fun lam20n1 () Int)
(declare-fun lam20n2 () Int)
(declare-fun lam20n3 () Int)
(declare-fun lam21n0 () Int)
(declare-fun lam21n1 () Int)
(declare-fun lam21n2 () Int)
(declare-fun lam21n3 () Int)
(declare-fun lam22n0 () Int)
(declare-fun lam22n1 () Int)
(declare-fun lam22n2 () Int)
(declare-fun lam22n3 () Int)
(declare-fun lam23n0 () Int)
(declare-fun lam23n1 () Int)
(declare-fun lam23n2 () Int)
(declare-fun lam23n3 () Int)
(declare-fun lam24n0 () Int)
(declare-fun lam25n0 () Int)
(declare-fun lam26n0 () Int)
(declare-fun WItemsNum^0 () Int)
(declare-fun undef52 () Int)
(declare-fun __const_5^0 () Int)
(declare-fun lam27n0 () Int)
(declare-fun lam27n1 () Int)
(declare-fun lam27n2 () Int)
(declare-fun lam28n0 () Int)
(declare-fun lam28n1 () Int)
(declare-fun lam28n2 () Int)
(assert ( and ( <= ( - 1 ) Nl5WItemsNum^01 ) ( <= Nl5WItemsNum^01 1 ) ( <= ( - 1 ) Nl5__const_5^01 ) ( <= Nl5__const_5^01 1 ) ( <= ( - 1 ) Nl6WItemsNum^01 ) ( <= Nl6WItemsNum^01 1 ) ( <= ( - 1 ) Nl6__const_5^01 ) ( <= Nl6__const_5^01 1 ) ( <= ( - 1 ) Nl5WItemsNum^02 ) ( <= Nl5WItemsNum^02 1 ) ( <= ( - 1 ) Nl5__const_5^02 ) ( <= Nl5__const_5^02 1 ) ( <= ( - 1 ) Nl6WItemsNum^02 ) ( <= Nl6WItemsNum^02 1 ) ( <= ( - 1 ) Nl6__const_5^02 ) ( <= Nl6__const_5^02 1 ) ( <= ( - 1 ) Nl5WItemsNum^03 ) ( <= Nl5WItemsNum^03 1 ) ( <= ( - 1 ) Nl5__const_5^03 ) ( <= Nl5__const_5^03 1 ) ( <= ( - 1 ) Nl6WItemsNum^03 ) ( <= Nl6WItemsNum^03 1 ) ( <= ( - 1 ) Nl6__const_5^03 ) ( <= Nl6__const_5^03 1 ) ))
(assert ( or ( and ( >= lam0n0 0 ) ( >= lam0n1 0 ) ( >= lam0n2 0 ) ( >= lam0n3 0 ) ( > ( + ( * 1 lam0n0 ) ( * Nl5CT1 lam0n1 ) ( * Nl5CT2 lam0n2 ) ( * Nl5CT3 lam0n3 ) ( - 1 ) ) 0 ) ( = ( + ( * ( - 1 ) lam0n0 ) ( * Nl5WItemsNum^01 lam0n1 ) ( * Nl5WItemsNum^02 lam0n2 ) ( * Nl5WItemsNum^03 lam0n3 ) ) 0 ) ( = ( + ( * 1 lam0n0 ) ( * Nl5__const_5^01 lam0n1 ) ( * Nl5__const_5^02 lam0n2 ) ( * Nl5__const_5^03 lam0n3 ) ) 0 ) ) ( and ( >= lam1n0 0 ) ( >= lam1n1 0 ) ( >= lam1n2 0 ) ( >= lam1n3 0 ) ( > ( + ( * 1 lam1n0 ) ( * Nl5CT1 lam1n1 ) ( * Nl5CT2 lam1n2 ) ( * Nl5CT3 lam1n3 ) ( - 1 Nl6CT1 ) ) 0 ) ( = ( + ( * ( - 1 ) lam1n0 ) ( * Nl5WItemsNum^01 lam1n1 ) ( * Nl5WItemsNum^02 lam1n2 ) ( * Nl5WItemsNum^03 lam1n3 ) ( - ( + 0 Nl6WItemsNum^01 ) ) ) 0 ) ( = ( + ( * 1 lam1n0 ) ( * Nl5__const_5^01 lam1n1 ) ( * Nl5__const_5^02 lam1n2 ) ( * Nl5__const_5^03 lam1n3 ) ( - ( + 0 Nl6__const_5^01 ) ) ) 0 ) ) ))
(assert ( or ( and ( >= lam0n0 0 ) ( >= lam0n1 0 ) ( >= lam0n2 0 ) ( >= lam0n3 0 ) ( > ( + ( * 1 lam0n0 ) ( * Nl5CT1 lam0n1 ) ( * Nl5CT2 lam0n2 ) ( * Nl5CT3 lam0n3 ) ( - 1 ) ) 0 ) ( = ( + ( * ( - 1 ) lam0n0 ) ( * Nl5WItemsNum^01 lam0n1 ) ( * Nl5WItemsNum^02 lam0n2 ) ( * Nl5WItemsNum^03 lam0n3 ) ) 0 ) ( = ( + ( * 1 lam0n0 ) ( * Nl5__const_5^01 lam0n1 ) ( * Nl5__const_5^02 lam0n2 ) ( * Nl5__const_5^03 lam0n3 ) ) 0 ) ) ( and ( >= lam2n0 0 ) ( >= lam2n1 0 ) ( >= lam2n2 0 ) ( >= lam2n3 0 ) ( > ( + ( * 1 lam2n0 ) ( * Nl5CT1 lam2n1 ) ( * Nl5CT2 lam2n2 ) ( * Nl5CT3 lam2n3 ) ( - 1 Nl6CT2 ) ) 0 ) ( = ( + ( * ( - 1 ) lam2n0 ) ( * Nl5WItemsNum^01 lam2n1 ) ( * Nl5WItemsNum^02 lam2n2 ) ( * Nl5WItemsNum^03 lam2n3 ) ( - ( + 0 Nl6WItemsNum^02 ) ) ) 0 ) ( = ( + ( * 1 lam2n0 ) ( * Nl5__const_5^01 lam2n1 ) ( * Nl5__const_5^02 lam2n2 ) ( * Nl5__const_5^03 lam2n3 ) ( - ( + 0 Nl6__const_5^02 ) ) ) 0 ) ) ))
(assert ( or ( and ( >= lam0n0 0 ) ( >= lam0n1 0 ) ( >= lam0n2 0 ) ( >= lam0n3 0 ) ( > ( + ( * 1 lam0n0 ) ( * Nl5CT1 lam0n1 ) ( * Nl5CT2 lam0n2 ) ( * Nl5CT3 lam0n3 ) ( - 1 ) ) 0 ) ( = ( + ( * ( - 1 ) lam0n0 ) ( * Nl5WItemsNum^01 lam0n1 ) ( * Nl5WItemsNum^02 lam0n2 ) ( * Nl5WItemsNum^03 lam0n3 ) ) 0 ) ( = ( + ( * 1 lam0n0 ) ( * Nl5__const_5^01 lam0n1 ) ( * Nl5__const_5^02 lam0n2 ) ( * Nl5__const_5^03 lam0n3 ) ) 0 ) ) ( and ( >= lam3n0 0 ) ( >= lam3n1 0 ) ( >= lam3n2 0 ) ( >= lam3n3 0 ) ( > ( + ( * 1 lam3n0 ) ( * Nl5CT1 lam3n1 ) ( * Nl5CT2 lam3n2 ) ( * Nl5CT3 lam3n3 ) ( - 1 Nl6CT3 ) ) 0 ) ( = ( + ( * ( - 1 ) lam3n0 ) ( * Nl5WItemsNum^01 lam3n1 ) ( * Nl5WItemsNum^02 lam3n2 ) ( * Nl5WItemsNum^03 lam3n3 ) ( - ( + 0 Nl6WItemsNum^03 ) ) ) 0 ) ( = ( + ( * 1 lam3n0 ) ( * Nl5__const_5^01 lam3n1 ) ( * Nl5__const_5^02 lam3n2 ) ( * Nl5__const_5^03 lam3n3 ) ( - ( + 0 Nl6__const_5^03 ) ) ) 0 ) ) ))
(assert ( or ( and ( >= lam4n0 0 ) ( >= lam4n2 0 ) ( >= lam4n3 0 ) ( >= lam4n4 0 ) ( > ( + ( * Nl5CT1 lam4n2 ) ( * Nl5CT2 lam4n3 ) ( * Nl5CT3 lam4n4 ) ( - 1 ) ) 0 ) ( = ( + ( * 1 lam4n0 ) ( * Nl5WItemsNum^01 lam4n2 ) ( * Nl5WItemsNum^02 lam4n3 ) ( * Nl5WItemsNum^03 lam4n4 ) ) 0 ) ( = ( + ( * ( - 1 ) lam4n0 ) ( * Nl5__const_5^01 lam4n2 ) ( * Nl5__const_5^02 lam4n3 ) ( * Nl5__const_5^03 lam4n4 ) ) 0 ) ( = ( * 1 lam4n1 ) 0 ) ) ( and ( >= lam5n0 0 ) ( >= lam5n2 0 ) ( >= lam5n3 0 ) ( >= lam5n4 0 ) ( > ( + ( * Nl5CT1 lam5n2 ) ( * Nl5CT2 lam5n3 ) ( * Nl5CT3 lam5n4 ) ( - 1 Nl6CT1 ) ) 0 ) ( = ( + ( * 1 lam5n0 ) ( * Nl5WItemsNum^01 lam5n2 ) ( * Nl5WItemsNum^02 lam5n3 ) ( * Nl5WItemsNum^03 lam5n4 ) ( - ( + 0 Nl6WItemsNum^01 ) ) ) 0 ) ( = ( + ( * ( - 1 ) lam5n0 ) ( * Nl5__const_5^01 lam5n2 ) ( * Nl5__const_5^02 lam5n3 ) ( * Nl5__const_5^03 lam5n4 ) ( - ( + 0 Nl6__const_5^01 ) ) ) 0 ) ( = ( * 1 lam5n1 ) 0 ) ) ))
(assert ( or ( and ( >= lam4n0 0 ) ( >= lam4n2 0 ) ( >= lam4n3 0 ) ( >= lam4n4 0 ) ( > ( + ( * Nl5CT1 lam4n2 ) ( * Nl5CT2 lam4n3 ) ( * Nl5CT3 lam4n4 ) ( - 1 ) ) 0 ) ( = ( + ( * 1 lam4n0 ) ( * Nl5WItemsNum^01 lam4n2 ) ( * Nl5WItemsNum^02 lam4n3 ) ( * Nl5WItemsNum^03 lam4n4 ) ) 0 ) ( = ( + ( * ( - 1 ) lam4n0 ) ( * Nl5__const_5^01 lam4n2 ) ( * Nl5__const_5^02 lam4n3 ) ( * Nl5__const_5^03 lam4n4 ) ) 0 ) ( = ( * 1 lam4n1 ) 0 ) ) ( and ( >= lam6n0 0 ) ( >= lam6n2 0 ) ( >= lam6n3 0 ) ( >= lam6n4 0 ) ( > ( + ( * Nl5CT1 lam6n2 ) ( * Nl5CT2 lam6n3 ) ( * Nl5CT3 lam6n4 ) ( - 1 Nl6CT2 ) ) 0 ) ( = ( + ( * 1 lam6n0 ) ( * Nl5WItemsNum^01 lam6n2 ) ( * Nl5WItemsNum^02 lam6n3 ) ( * Nl5WItemsNum^03 lam6n4 ) ( - ( + 0 Nl6WItemsNum^02 ) ) ) 0 ) ( = ( + ( * ( - 1 ) lam6n0 ) ( * Nl5__const_5^01 lam6n2 ) ( * Nl5__const_5^02 lam6n3 ) ( * Nl5__const_5^03 lam6n4 ) ( - ( + 0 Nl6__const_5^02 ) ) ) 0 ) ( = ( * 1 lam6n1 ) 0 ) ) ))
(assert ( or ( and ( >= lam4n0 0 ) ( >= lam4n2 0 ) ( >= lam4n3 0 ) ( >= lam4n4 0 ) ( > ( + ( * Nl5CT1 lam4n2 ) ( * Nl5CT2 lam4n3 ) ( * Nl5CT3 lam4n4 ) ( - 1 ) ) 0 ) ( = ( + ( * 1 lam4n0 ) ( * Nl5WItemsNum^01 lam4n2 ) ( * Nl5WItemsNum^02 lam4n3 ) ( * Nl5WItemsNum^03 lam4n4 ) ) 0 ) ( = ( + ( * ( - 1 ) lam4n0 ) ( * Nl5__const_5^01 lam4n2 ) ( * Nl5__const_5^02 lam4n3 ) ( * Nl5__const_5^03 lam4n4 ) ) 0 ) ( = ( * 1 lam4n1 ) 0 ) ) ( and ( >= lam7n0 0 ) ( >= lam7n2 0 ) ( >= lam7n3 0 ) ( >= lam7n4 0 ) ( > ( + ( * Nl5CT1 lam7n2 ) ( * Nl5CT2 lam7n3 ) ( * Nl5CT3 lam7n4 ) ( - 1 Nl6CT3 ) ) 0 ) ( = ( + ( * 1 lam7n0 ) ( * Nl5WItemsNum^01 lam7n2 ) ( * Nl5WItemsNum^02 lam7n3 ) ( * Nl5WItemsNum^03 lam7n4 ) ( - ( + 0 Nl6WItemsNum^03 ) ) ) 0 ) ( = ( + ( * ( - 1 ) lam7n0 ) ( * Nl5__const_5^01 lam7n2 ) ( * Nl5__const_5^02 lam7n3 ) ( * Nl5__const_5^03 lam7n4 ) ( - ( + 0 Nl6__const_5^03 ) ) ) 0 ) ( = ( * 1 lam7n1 ) 0 ) ) ))
(assert ( or ( and ( >= lam8n0 0 ) ( >= lam8n1 0 ) ( >= lam8n2 0 ) ( >= lam8n3 0 ) ( >= lam8n4 0 ) ( > ( + ( * 1 lam8n0 ) ( * Nl5CT1 lam8n2 ) ( * Nl5CT2 lam8n3 ) ( * Nl5CT3 lam8n4 ) ( - 1 ) ) 0 ) ( = ( + ( * 1 lam8n1 ) ( * Nl5WItemsNum^01 lam8n2 ) ( * Nl5WItemsNum^02 lam8n3 ) ( * Nl5WItemsNum^03 lam8n4 ) ) 0 ) ( = ( + ( * ( - 1 ) lam8n1 ) ( * Nl5__const_5^01 lam8n2 ) ( * Nl5__const_5^02 lam8n3 ) ( * Nl5__const_5^03 lam8n4 ) ) 0 ) ( = ( * ( - 1 ) lam8n0 ) 0 ) ) ( and ( >= lam9n0 0 ) ( >= lam9n1 0 ) ( >= lam9n2 0 ) ( >= lam9n3 0 ) ( >= lam9n4 0 ) ( > ( + ( * 1 lam9n0 ) ( * Nl5CT1 lam9n2 ) ( * Nl5CT2 lam9n3 ) ( * Nl5CT3 lam9n4 ) ( - 1 ( + Nl5CT1 ( * Nl5WItemsNum^01 1 ) ) ) ) 0 ) ( = ( + ( * 1 lam9n1 ) ( * Nl5WItemsNum^01 lam9n2 ) ( * Nl5WItemsNum^02 lam9n3 ) ( * Nl5WItemsNum^03 lam9n4 ) ( - ( + 0 ( * Nl5WItemsNum^01 1 ) ) ) ) 0 ) ( = ( + ( * ( - 1 ) lam9n1 ) ( * Nl5__const_5^01 lam9n2 ) ( * Nl5__const_5^02 lam9n3 ) ( * Nl5__const_5^03 lam9n4 ) ( - ( + 0 Nl5__const_5^01 ) ) ) 0 ) ( = ( * ( - 1 ) lam9n0 ) 0 ) ) ))
(assert ( or ( and ( >= lam8n0 0 ) ( >= lam8n1 0 ) ( >= lam8n2 0 ) ( >= lam8n3 0 ) ( >= lam8n4 0 ) ( > ( + ( * 1 lam8n0 ) ( * Nl5CT1 lam8n2 ) ( * Nl5CT2 lam8n3 ) ( * Nl5CT3 lam8n4 ) ( - 1 ) ) 0 ) ( = ( + ( * 1 lam8n1 ) ( * Nl5WItemsNum^01 lam8n2 ) ( * Nl5WItemsNum^02 lam8n3 ) ( * Nl5WItemsNum^03 lam8n4 ) ) 0 ) ( = ( + ( * ( - 1 ) lam8n1 ) ( * Nl5__const_5^01 lam8n2 ) ( * Nl5__const_5^02 lam8n3 ) ( * Nl5__const_5^03 lam8n4 ) ) 0 ) ( = ( * ( - 1 ) lam8n0 ) 0 ) ) ( and ( >= lam10n0 0 ) ( >= lam10n1 0 ) ( >= lam10n2 0 ) ( >= lam10n3 0 ) ( >= lam10n4 0 ) ( > ( + ( * 1 lam10n0 ) ( * Nl5CT1 lam10n2 ) ( * Nl5CT2 lam10n3 ) ( * Nl5CT3 lam10n4 ) ( - 1 ( + Nl5CT2 ( * Nl5WItemsNum^02 1 ) ) ) ) 0 ) ( = ( + ( * 1 lam10n1 ) ( * Nl5WItemsNum^01 lam10n2 ) ( * Nl5WItemsNum^02 lam10n3 ) ( * Nl5WItemsNum^03 lam10n4 ) ( - ( + 0 ( * Nl5WItemsNum^02 1 ) ) ) ) 0 ) ( = ( + ( * ( - 1 ) lam10n1 ) ( * Nl5__const_5^01 lam10n2 ) ( * Nl5__const_5^02 lam10n3 ) ( * Nl5__const_5^03 lam10n4 ) ( - ( + 0 Nl5__const_5^02 ) ) ) 0 ) ( = ( * ( - 1 ) lam10n0 ) 0 ) ) ))
(assert ( or ( and ( >= lam8n0 0 ) ( >= lam8n1 0 ) ( >= lam8n2 0 ) ( >= lam8n3 0 ) ( >= lam8n4 0 ) ( > ( + ( * 1 lam8n0 ) ( * Nl5CT1 lam8n2 ) ( * Nl5CT2 lam8n3 ) ( * Nl5CT3 lam8n4 ) ( - 1 ) ) 0 ) ( = ( + ( * 1 lam8n1 ) ( * Nl5WItemsNum^01 lam8n2 ) ( * Nl5WItemsNum^02 lam8n3 ) ( * Nl5WItemsNum^03 lam8n4 ) ) 0 ) ( = ( + ( * ( - 1 ) lam8n1 ) ( * Nl5__const_5^01 lam8n2 ) ( * Nl5__const_5^02 lam8n3 ) ( * Nl5__const_5^03 lam8n4 ) ) 0 ) ( = ( * ( - 1 ) lam8n0 ) 0 ) ) ( and ( >= lam11n0 0 ) ( >= lam11n1 0 ) ( >= lam11n2 0 ) ( >= lam11n3 0 ) ( >= lam11n4 0 ) ( > ( + ( * 1 lam11n0 ) ( * Nl5CT1 lam11n2 ) ( * Nl5CT2 lam11n3 ) ( * Nl5CT3 lam11n4 ) ( - 1 ( + Nl5CT3 ( * Nl5WItemsNum^03 1 ) ) ) ) 0 ) ( = ( + ( * 1 lam11n1 ) ( * Nl5WItemsNum^01 lam11n2 ) ( * Nl5WItemsNum^02 lam11n3 ) ( * Nl5WItemsNum^03 lam11n4 ) ( - ( + 0 ( * Nl5WItemsNum^03 1 ) ) ) ) 0 ) ( = ( + ( * ( - 1 ) lam11n1 ) ( * Nl5__const_5^01 lam11n2 ) ( * Nl5__const_5^02 lam11n3 ) ( * Nl5__const_5^03 lam11n4 ) ( - ( + 0 Nl5__const_5^03 ) ) ) 0 ) ( = ( * ( - 1 ) lam11n0 ) 0 ) ) ))
(assert ( or ( and ( >= lam12n0 0 ) ( >= lam12n1 0 ) ( >= lam12n2 0 ) ( >= lam12n3 0 ) ( >= lam12n4 0 ) ( > ( + ( * 1 lam12n0 ) ( * Nl5CT1 lam12n2 ) ( * Nl5CT2 lam12n3 ) ( * Nl5CT3 lam12n4 ) ( - 1 ) ) 0 ) ( = ( + ( * 1 lam12n1 ) ( * Nl5WItemsNum^01 lam12n2 ) ( * Nl5WItemsNum^02 lam12n3 ) ( * Nl5WItemsNum^03 lam12n4 ) ) 0 ) ( = ( + ( * ( - 1 ) lam12n1 ) ( * Nl5__const_5^01 lam12n2 ) ( * Nl5__const_5^02 lam12n3 ) ( * Nl5__const_5^03 lam12n4 ) ) 0 ) ( = ( * 1 lam12n0 ) 0 ) ) ( and ( >= lam13n0 0 ) ( >= lam13n1 0 ) ( >= lam13n2 0 ) ( >= lam13n3 0 ) ( >= lam13n4 0 ) ( > ( + ( * 1 lam13n0 ) ( * Nl5CT1 lam13n2 ) ( * Nl5CT2 lam13n3 ) ( * Nl5CT3 lam13n4 ) ( - 1 ( + Nl5CT1 ( * Nl5WItemsNum^01 1 ) ) ) ) 0 ) ( = ( + ( * 1 lam13n1 ) ( * Nl5WItemsNum^01 lam13n2 ) ( * Nl5WItemsNum^02 lam13n3 ) ( * Nl5WItemsNum^03 lam13n4 ) ( - ( + 0 ( * Nl5WItemsNum^01 1 ) ) ) ) 0 ) ( = ( + ( * ( - 1 ) lam13n1 ) ( * Nl5__const_5^01 lam13n2 ) ( * Nl5__const_5^02 lam13n3 ) ( * Nl5__const_5^03 lam13n4 ) ( - ( + 0 Nl5__const_5^01 ) ) ) 0 ) ( = ( * 1 lam13n0 ) 0 ) ) ))
(assert ( or ( and ( >= lam12n0 0 ) ( >= lam12n1 0 ) ( >= lam12n2 0 ) ( >= lam12n3 0 ) ( >= lam12n4 0 ) ( > ( + ( * 1 lam12n0 ) ( * Nl5CT1 lam12n2 ) ( * Nl5CT2 lam12n3 ) ( * Nl5CT3 lam12n4 ) ( - 1 ) ) 0 ) ( = ( + ( * 1 lam12n1 ) ( * Nl5WItemsNum^01 lam12n2 ) ( * Nl5WItemsNum^02 lam12n3 ) ( * Nl5WItemsNum^03 lam12n4 ) ) 0 ) ( = ( + ( * ( - 1 ) lam12n1 ) ( * Nl5__const_5^01 lam12n2 ) ( * Nl5__const_5^02 lam12n3 ) ( * Nl5__const_5^03 lam12n4 ) ) 0 ) ( = ( * 1 lam12n0 ) 0 ) ) ( and ( >= lam14n0 0 ) ( >= lam14n1 0 ) ( >= lam14n2 0 ) ( >= lam14n3 0 ) ( >= lam14n4 0 ) ( > ( + ( * 1 lam14n0 ) ( * Nl5CT1 lam14n2 ) ( * Nl5CT2 lam14n3 ) ( * Nl5CT3 lam14n4 ) ( - 1 ( + Nl5CT2 ( * Nl5WItemsNum^02 1 ) ) ) ) 0 ) ( = ( + ( * 1 lam14n1 ) ( * Nl5WItemsNum^01 lam14n2 ) ( * Nl5WItemsNum^02 lam14n3 ) ( * Nl5WItemsNum^03 lam14n4 ) ( - ( + 0 ( * Nl5WItemsNum^02 1 ) ) ) ) 0 ) ( = ( + ( * ( - 1 ) lam14n1 ) ( * Nl5__const_5^01 lam14n2 ) ( * Nl5__const_5^02 lam14n3 ) ( * Nl5__const_5^03 lam14n4 ) ( - ( + 0 Nl5__const_5^02 ) ) ) 0 ) ( = ( * 1 lam14n0 ) 0 ) ) ))
(assert ( or ( and ( >= lam12n0 0 ) ( >= lam12n1 0 ) ( >= lam12n2 0 ) ( >= lam12n3 0 ) ( >= lam12n4 0 ) ( > ( + ( * 1 lam12n0 ) ( * Nl5CT1 lam12n2 ) ( * Nl5CT2 lam12n3 ) ( * Nl5CT3 lam12n4 ) ( - 1 ) ) 0 ) ( = ( + ( * 1 lam12n1 ) ( * Nl5WItemsNum^01 lam12n2 ) ( * Nl5WItemsNum^02 lam12n3 ) ( * Nl5WItemsNum^03 lam12n4 ) ) 0 ) ( = ( + ( * ( - 1 ) lam12n1 ) ( * Nl5__const_5^01 lam12n2 ) ( * Nl5__const_5^02 lam12n3 ) ( * Nl5__const_5^03 lam12n4 ) ) 0 ) ( = ( * 1 lam12n0 ) 0 ) ) ( and ( >= lam15n0 0 ) ( >= lam15n1 0 ) ( >= lam15n2 0 ) ( >= lam15n3 0 ) ( >= lam15n4 0 ) ( > ( + ( * 1 lam15n0 ) ( * Nl5CT1 lam15n2 ) ( * Nl5CT2 lam15n3 ) ( * Nl5CT3 lam15n4 ) ( - 1 ( + Nl5CT3 ( * Nl5WItemsNum^03 1 ) ) ) ) 0 ) ( = ( + ( * 1 lam15n1 ) ( * Nl5WItemsNum^01 lam15n2 ) ( * Nl5WItemsNum^02 lam15n3 ) ( * Nl5WItemsNum^03 lam15n4 ) ( - ( + 0 ( * Nl5WItemsNum^03 1 ) ) ) ) 0 ) ( = ( + ( * ( - 1 ) lam15n1 ) ( * Nl5__const_5^01 lam15n2 ) ( * Nl5__const_5^02 lam15n3 ) ( * Nl5__const_5^03 lam15n4 ) ( - ( + 0 Nl5__const_5^03 ) ) ) 0 ) ( = ( * 1 lam15n0 ) 0 ) ) ))
(assert ( or ( and ( >= lam16n0 0 ) ( >= lam16n1 0 ) ( >= lam16n2 0 ) ( >= lam16n3 0 ) ( > ( + ( * ( - 2 ) lam16n0 ) ( * Nl6CT1 lam16n1 ) ( * Nl6CT2 lam16n2 ) ( * Nl6CT3 lam16n3 ) ( - 1 ) ) 0 ) ( = ( + ( * 1 lam16n0 ) ( * Nl6WItemsNum^01 lam16n1 ) ( * Nl6WItemsNum^02 lam16n2 ) ( * Nl6WItemsNum^03 lam16n3 ) ) 0 ) ( = ( + ( * Nl6__const_5^01 lam16n1 ) ( * Nl6__const_5^02 lam16n2 ) ( * Nl6__const_5^03 lam16n3 ) ) 0 ) ) ( and ( >= lam17n0 0 ) ( >= lam17n1 0 ) ( >= lam17n2 0 ) ( >= lam17n3 0 ) ( > ( + ( * ( - 2 ) lam17n0 ) ( * Nl6CT1 lam17n1 ) ( * Nl6CT2 lam17n2 ) ( * Nl6CT3 lam17n3 ) ( - 1 Nl5CT1 ) ) 0 ) ( = ( + ( * 1 lam17n0 ) ( * Nl6WItemsNum^01 lam17n1 ) ( * Nl6WItemsNum^02 lam17n2 ) ( * Nl6WItemsNum^03 lam17n3 ) ( - ( + 0 Nl5WItemsNum^01 ) ) ) 0 ) ( = ( + ( * Nl6__const_5^01 lam17n1 ) ( * Nl6__const_5^02 lam17n2 ) ( * Nl6__const_5^03 lam17n3 ) ( - ( + 0 Nl5__const_5^01 ) ) ) 0 ) ) ))
(assert ( or ( and ( >= lam16n0 0 ) ( >= lam16n1 0 ) ( >= lam16n2 0 ) ( >= lam16n3 0 ) ( > ( + ( * ( - 2 ) lam16n0 ) ( * Nl6CT1 lam16n1 ) ( * Nl6CT2 lam16n2 ) ( * Nl6CT3 lam16n3 ) ( - 1 ) ) 0 ) ( = ( + ( * 1 lam16n0 ) ( * Nl6WItemsNum^01 lam16n1 ) ( * Nl6WItemsNum^02 lam16n2 ) ( * Nl6WItemsNum^03 lam16n3 ) ) 0 ) ( = ( + ( * Nl6__const_5^01 lam16n1 ) ( * Nl6__const_5^02 lam16n2 ) ( * Nl6__const_5^03 lam16n3 ) ) 0 ) ) ( and ( >= lam18n0 0 ) ( >= lam18n1 0 ) ( >= lam18n2 0 ) ( >= lam18n3 0 ) ( > ( + ( * ( - 2 ) lam18n0 ) ( * Nl6CT1 lam18n1 ) ( * Nl6CT2 lam18n2 ) ( * Nl6CT3 lam18n3 ) ( - 1 Nl5CT2 ) ) 0 ) ( = ( + ( * 1 lam18n0 ) ( * Nl6WItemsNum^01 lam18n1 ) ( * Nl6WItemsNum^02 lam18n2 ) ( * Nl6WItemsNum^03 lam18n3 ) ( - ( + 0 Nl5WItemsNum^02 ) ) ) 0 ) ( = ( + ( * Nl6__const_5^01 lam18n1 ) ( * Nl6__const_5^02 lam18n2 ) ( * Nl6__const_5^03 lam18n3 ) ( - ( + 0 Nl5__const_5^02 ) ) ) 0 ) ) ))
(assert ( or ( and ( >= lam16n0 0 ) ( >= lam16n1 0 ) ( >= lam16n2 0 ) ( >= lam16n3 0 ) ( > ( + ( * ( - 2 ) lam16n0 ) ( * Nl6CT1 lam16n1 ) ( * Nl6CT2 lam16n2 ) ( * Nl6CT3 lam16n3 ) ( - 1 ) ) 0 ) ( = ( + ( * 1 lam16n0 ) ( * Nl6WItemsNum^01 lam16n1 ) ( * Nl6WItemsNum^02 lam16n2 ) ( * Nl6WItemsNum^03 lam16n3 ) ) 0 ) ( = ( + ( * Nl6__const_5^01 lam16n1 ) ( * Nl6__const_5^02 lam16n2 ) ( * Nl6__const_5^03 lam16n3 ) ) 0 ) ) ( and ( >= lam19n0 0 ) ( >= lam19n1 0 ) ( >= lam19n2 0 ) ( >= lam19n3 0 ) ( > ( + ( * ( - 2 ) lam19n0 ) ( * Nl6CT1 lam19n1 ) ( * Nl6CT2 lam19n2 ) ( * Nl6CT3 lam19n3 ) ( - 1 Nl5CT3 ) ) 0 ) ( = ( + ( * 1 lam19n0 ) ( * Nl6WItemsNum^01 lam19n1 ) ( * Nl6WItemsNum^02 lam19n2 ) ( * Nl6WItemsNum^03 lam19n3 ) ( - ( + 0 Nl5WItemsNum^03 ) ) ) 0 ) ( = ( + ( * Nl6__const_5^01 lam19n1 ) ( * Nl6__const_5^02 lam19n2 ) ( * Nl6__const_5^03 lam19n3 ) ( - ( + 0 Nl5__const_5^03 ) ) ) 0 ) ) ))
(assert ( or ( and ( >= lam20n0 0 ) ( >= lam20n1 0 ) ( >= lam20n2 0 ) ( >= lam20n3 0 ) ( > ( + ( * 3 lam20n0 ) ( * Nl6CT1 lam20n1 ) ( * Nl6CT2 lam20n2 ) ( * Nl6CT3 lam20n3 ) ( - 1 ) ) 0 ) ( = ( + ( * ( - 1 ) lam20n0 ) ( * Nl6WItemsNum^01 lam20n1 ) ( * Nl6WItemsNum^02 lam20n2 ) ( * Nl6WItemsNum^03 lam20n3 ) ) 0 ) ( = ( + ( * Nl6__const_5^01 lam20n1 ) ( * Nl6__const_5^02 lam20n2 ) ( * Nl6__const_5^03 lam20n3 ) ) 0 ) ) ( and ( >= lam21n0 0 ) ( >= lam21n1 0 ) ( >= lam21n2 0 ) ( >= lam21n3 0 ) ( > ( + ( * 3 lam21n0 ) ( * Nl6CT1 lam21n1 ) ( * Nl6CT2 lam21n2 ) ( * Nl6CT3 lam21n3 ) ( - 1 ( + Nl6CT1 ( * Nl6WItemsNum^01 ( - 1 ) ) ) ) ) 0 ) ( = ( + ( * ( - 1 ) lam21n0 ) ( * Nl6WItemsNum^01 lam21n1 ) ( * Nl6WItemsNum^02 lam21n2 ) ( * Nl6WItemsNum^03 lam21n3 ) ( - ( + 0 ( * Nl6WItemsNum^01 1 ) ) ) ) 0 ) ( = ( + ( * Nl6__const_5^01 lam21n1 ) ( * Nl6__const_5^02 lam21n2 ) ( * Nl6__const_5^03 lam21n3 ) ( - ( + 0 Nl6__const_5^01 ) ) ) 0 ) ) ))
(assert ( or ( and ( >= lam20n0 0 ) ( >= lam20n1 0 ) ( >= lam20n2 0 ) ( >= lam20n3 0 ) ( > ( + ( * 3 lam20n0 ) ( * Nl6CT1 lam20n1 ) ( * Nl6CT2 lam20n2 ) ( * Nl6CT3 lam20n3 ) ( - 1 ) ) 0 ) ( = ( + ( * ( - 1 ) lam20n0 ) ( * Nl6WItemsNum^01 lam20n1 ) ( * Nl6WItemsNum^02 lam20n2 ) ( * Nl6WItemsNum^03 lam20n3 ) ) 0 ) ( = ( + ( * Nl6__const_5^01 lam20n1 ) ( * Nl6__const_5^02 lam20n2 ) ( * Nl6__const_5^03 lam20n3 ) ) 0 ) ) ( and ( >= lam22n0 0 ) ( >= lam22n1 0 ) ( >= lam22n2 0 ) ( >= lam22n3 0 ) ( > ( + ( * 3 lam22n0 ) ( * Nl6CT1 lam22n1 ) ( * Nl6CT2 lam22n2 ) ( * Nl6CT3 lam22n3 ) ( - 1 ( + Nl6CT2 ( * Nl6WItemsNum^02 ( - 1 ) ) ) ) ) 0 ) ( = ( + ( * ( - 1 ) lam22n0 ) ( * Nl6WItemsNum^01 lam22n1 ) ( * Nl6WItemsNum^02 lam22n2 ) ( * Nl6WItemsNum^03 lam22n3 ) ( - ( + 0 ( * Nl6WItemsNum^02 1 ) ) ) ) 0 ) ( = ( + ( * Nl6__const_5^01 lam22n1 ) ( * Nl6__const_5^02 lam22n2 ) ( * Nl6__const_5^03 lam22n3 ) ( - ( + 0 Nl6__const_5^02 ) ) ) 0 ) ) ))
(assert ( or ( and ( >= lam20n0 0 ) ( >= lam20n1 0 ) ( >= lam20n2 0 ) ( >= lam20n3 0 ) ( > ( + ( * 3 lam20n0 ) ( * Nl6CT1 lam20n1 ) ( * Nl6CT2 lam20n2 ) ( * Nl6CT3 lam20n3 ) ( - 1 ) ) 0 ) ( = ( + ( * ( - 1 ) lam20n0 ) ( * Nl6WItemsNum^01 lam20n1 ) ( * Nl6WItemsNum^02 lam20n2 ) ( * Nl6WItemsNum^03 lam20n3 ) ) 0 ) ( = ( + ( * Nl6__const_5^01 lam20n1 ) ( * Nl6__const_5^02 lam20n2 ) ( * Nl6__const_5^03 lam20n3 ) ) 0 ) ) ( and ( >= lam23n0 0 ) ( >= lam23n1 0 ) ( >= lam23n2 0 ) ( >= lam23n3 0 ) ( > ( + ( * 3 lam23n0 ) ( * Nl6CT1 lam23n1 ) ( * Nl6CT2 lam23n2 ) ( * Nl6CT3 lam23n3 ) ( - 1 ( + Nl6CT3 ( * Nl6WItemsNum^03 ( - 1 ) ) ) ) ) 0 ) ( = ( + ( * ( - 1 ) lam23n0 ) ( * Nl6WItemsNum^01 lam23n1 ) ( * Nl6WItemsNum^02 lam23n2 ) ( * Nl6WItemsNum^03 lam23n3 ) ( - ( + 0 ( * Nl6WItemsNum^03 1 ) ) ) ) 0 ) ( = ( + ( * Nl6__const_5^01 lam23n1 ) ( * Nl6__const_5^02 lam23n2 ) ( * Nl6__const_5^03 lam23n3 ) ( - ( + 0 Nl6__const_5^03 ) ) ) 0 ) ) ))
(assert ( and ( = ( + WItemsNum^0 ( * ( - 1 ) undef52 ) ) 0 ) ( <= ( + Nl5CT1 ( * ( + 0 Nl5WItemsNum^01 ) WItemsNum^0 ) ( * ( + 0 Nl5__const_5^01 ) __const_5^0 ) ) 0 ) ( <= ( + Nl5CT2 ( * ( + 0 Nl5WItemsNum^02 ) WItemsNum^0 ) ( * ( + 0 Nl5__const_5^02 ) __const_5^0 ) ) 0 ) ( <= ( + Nl5CT3 ( * ( + 0 Nl5WItemsNum^03 ) WItemsNum^0 ) ( * ( + 0 Nl5__const_5^03 ) __const_5^0 ) ) 0 ) ))
(assert ( or ( or ( and ( >= lam27n0 0 ) ( >= lam27n1 0 ) ( >= lam27n2 0 ) ( > ( + ( * Nl5CT1 lam27n0 ) ( * Nl5CT2 lam27n1 ) ( * Nl5CT3 lam27n2 ) ( - 1 ) ) 0 ) ( = ( + ( * Nl5WItemsNum^01 lam27n0 ) ( * Nl5WItemsNum^02 lam27n1 ) ( * Nl5WItemsNum^03 lam27n2 ) ) 0 ) ( = ( + ( * Nl5__const_5^01 lam27n0 ) ( * Nl5__const_5^02 lam27n1 ) ( * Nl5__const_5^03 lam27n2 ) ) 0 ) ) ( and ( >= lam28n0 0 ) ( >= lam28n1 0 ) ( >= lam28n2 0 ) ( > ( + ( * Nl5CT1 lam28n0 ) ( * Nl5CT2 lam28n1 ) ( * Nl5CT3 lam28n2 ) 1 ) 0 ) ( = ( + ( * Nl5WItemsNum^01 lam28n0 ) ( * Nl5WItemsNum^02 lam28n1 ) ( * Nl5WItemsNum^03 lam28n2 ) ( - 1 ) ) 0 ) ( = ( + ( * Nl5__const_5^01 lam28n0 ) ( * Nl5__const_5^02 lam28n1 ) ( * Nl5__const_5^03 lam28n2 ) 1 ) 0 ) ) ) ( and ( and ( = ( + WItemsNum^0 ( * ( - 1 ) undef52 ) ) 0 ) ( <= ( + Nl5CT1 ( * ( + 0 Nl5WItemsNum^01 ) WItemsNum^0 ) ( * ( + 0 Nl5__const_5^01 ) __const_5^0 ) ) 0 ) ( <= ( + Nl5CT2 ( * ( + 0 Nl5WItemsNum^02 ) WItemsNum^0 ) ( * ( + 0 Nl5__const_5^02 ) __const_5^0 ) ) 0 ) ( <= ( + Nl5CT3 ( * ( + 0 Nl5WItemsNum^03 ) WItemsNum^0 ) ( * ( + 0 Nl5__const_5^03 ) __const_5^0 ) ) 0 ) ) ( or ( and ( >= lam0n0 0 ) ( >= lam0n1 0 ) ( >= lam0n2 0 ) ( >= lam0n3 0 ) ( > ( + ( * 1 lam0n0 ) ( * Nl5CT1 lam0n1 ) ( * Nl5CT2 lam0n2 ) ( * Nl5CT3 lam0n3 ) ( - 1 ) ) 0 ) ( = ( + ( * ( - 1 ) lam0n0 ) ( * Nl5WItemsNum^01 lam0n1 ) ( * Nl5WItemsNum^02 lam0n2 ) ( * Nl5WItemsNum^03 lam0n3 ) ) 0 ) ( = ( + ( * 1 lam0n0 ) ( * Nl5__const_5^01 lam0n1 ) ( * Nl5__const_5^02 lam0n2 ) ( * Nl5__const_5^03 lam0n3 ) ) 0 ) ) ( and ( >= lam4n0 0 ) ( >= lam4n2 0 ) ( >= lam4n3 0 ) ( >= lam4n4 0 ) ( > ( + ( * Nl5CT1 lam4n2 ) ( * Nl5CT2 lam4n3 ) ( * Nl5CT3 lam4n4 ) ( - 1 ) ) 0 ) ( = ( + ( * 1 lam4n0 ) ( * Nl5WItemsNum^01 lam4n2 ) ( * Nl5WItemsNum^02 lam4n3 ) ( * Nl5WItemsNum^03 lam4n4 ) ) 0 ) ( = ( + ( * ( - 1 ) lam4n0 ) ( * Nl5__const_5^01 lam4n2 ) ( * Nl5__const_5^02 lam4n3 ) ( * Nl5__const_5^03 lam4n4 ) ) 0 ) ( = ( * 1 lam4n1 ) 0 ) ) ( and ( >= lam8n0 0 ) ( >= lam8n1 0 ) ( >= lam8n2 0 ) ( >= lam8n3 0 ) ( >= lam8n4 0 ) ( > ( + ( * 1 lam8n0 ) ( * Nl5CT1 lam8n2 ) ( * Nl5CT2 lam8n3 ) ( * Nl5CT3 lam8n4 ) ( - 1 ) ) 0 ) ( = ( + ( * 1 lam8n1 ) ( * Nl5WItemsNum^01 lam8n2 ) ( * Nl5WItemsNum^02 lam8n3 ) ( * Nl5WItemsNum^03 lam8n4 ) ) 0 ) ( = ( + ( * ( - 1 ) lam8n1 ) ( * Nl5__const_5^01 lam8n2 ) ( * Nl5__const_5^02 lam8n3 ) ( * Nl5__const_5^03 lam8n4 ) ) 0 ) ( = ( * ( - 1 ) lam8n0 ) 0 ) ) ( and ( >= lam12n0 0 ) ( >= lam12n1 0 ) ( >= lam12n2 0 ) ( >= lam12n3 0 ) ( >= lam12n4 0 ) ( > ( + ( * 1 lam12n0 ) ( * Nl5CT1 lam12n2 ) ( * Nl5CT2 lam12n3 ) ( * Nl5CT3 lam12n4 ) ( - 1 ) ) 0 ) ( = ( + ( * 1 lam12n1 ) ( * Nl5WItemsNum^01 lam12n2 ) ( * Nl5WItemsNum^02 lam12n3 ) ( * Nl5WItemsNum^03 lam12n4 ) ) 0 ) ( = ( + ( * ( - 1 ) lam12n1 ) ( * Nl5__const_5^01 lam12n2 ) ( * Nl5__const_5^02 lam12n3 ) ( * Nl5__const_5^03 lam12n4 ) ) 0 ) ( = ( * 1 lam12n0 ) 0 ) ) ( and ( >= lam16n0 0 ) ( >= lam16n1 0 ) ( >= lam16n2 0 ) ( >= lam16n3 0 ) ( > ( + ( * ( - 2 ) lam16n0 ) ( * Nl6CT1 lam16n1 ) ( * Nl6CT2 lam16n2 ) ( * Nl6CT3 lam16n3 ) ( - 1 ) ) 0 ) ( = ( + ( * 1 lam16n0 ) ( * Nl6WItemsNum^01 lam16n1 ) ( * Nl6WItemsNum^02 lam16n2 ) ( * Nl6WItemsNum^03 lam16n3 ) ) 0 ) ( = ( + ( * Nl6__const_5^01 lam16n1 ) ( * Nl6__const_5^02 lam16n2 ) ( * Nl6__const_5^03 lam16n3 ) ) 0 ) ) ( and ( >= lam20n0 0 ) ( >= lam20n1 0 ) ( >= lam20n2 0 ) ( >= lam20n3 0 ) ( > ( + ( * 3 lam20n0 ) ( * Nl6CT1 lam20n1 ) ( * Nl6CT2 lam20n2 ) ( * Nl6CT3 lam20n3 ) ( - 1 ) ) 0 ) ( = ( + ( * ( - 1 ) lam20n0 ) ( * Nl6WItemsNum^01 lam20n1 ) ( * Nl6WItemsNum^02 lam20n2 ) ( * Nl6WItemsNum^03 lam20n3 ) ) 0 ) ( = ( + ( * Nl6__const_5^01 lam20n1 ) ( * Nl6__const_5^02 lam20n2 ) ( * Nl6__const_5^03 lam20n3 ) ) 0 ) ) ) ) ))
(check-sat)
(exit)
